n=8;
hearts=20;
clubs=3;
spades=12;
diamonds=24;
blocked=3;
m=array2d(1..n, 1..n,[
	_,_,_,_,_,3,3,_,
	_,5,_,_,_,_,_,4,
	_,3,_,_,_,_,_,3,
	_,_,_,_,_,_,_,_,
	_,5,_,_,_,_,_,_,
	_,_,_,_,_,_,_,_,
	5,_,1,_,_,_,_,_,
	_,_,_,_,_,1,_,_
]);
